1 108 71 28 112 80 21 3 127 123 25 116 146 89 78 61 53 118 48 40 45 74 87 95 102 11 110 75 137 135 2 35 98 23 16 120 34 107 86 90 92 66 134 149 96 147 52 111 24 27 36 29 113 99 93 9 85 38 122 56 18 103 55 76 138 81 124 15 31 4 62 59 128 13 91 19 97 145 141 54 101 49 43 140 79 44 68 131 64 22 94 150 17 83 117 47 5 106 14 63 58 73 67 30 142 33 133 136 100 6 144 139 115 129 77 69 39 119 125 148 143 10 60 65 50 126 12 70 132 82 84 42 130 8 109 121 104 57 37 32 105 46 26 114 72 41 7 51 20 88
